#######################



#######################
Set parameter TimeLimit to value 500
Set parameter SoftMemLimit to value 125
Set parameter MIPFocus to value 2
Set parameter LogFile to value 1003-MIPFocus2-Presolve1-TimeLimit500-k16x240-2.log
Set parameter Presolve to value 1
Set parameter Seed to value 12
Using license file /opt/gurobi/gurobi.lic

Gurobi Optimizer version 10.0.3 build v10.0.3rc0 (linux64)
Copyright (c) 2023, Gurobi Optimization, LLC

Read MPS format model from file /miplib2010/k16x240.mps.bz2
Reading time = 0.00 seconds
k16x240: 256 rows, 480 columns, 960 nonzeros

CPU model: Intel(R) Xeon(R) E-2388G CPU @ 3.20GHz, instruction set [SSE2|AVX|AVX2|AVX512]
Thread count: 8 physical cores, 16 logical processors, using up to 16 threads

Optimize a model with 256 rows, 480 columns and 960 nonzeros
Model fingerprint: 0x4e80885f
Variable types: 240 continuous, 240 integer (240 binary)
Coefficient statistics:
  Matrix range     [1e+00, 1e+03]
  Objective range  [1e+00, 1e+03]
  Bounds range     [1e+00, 1e+03]
  RHS range        [4e+00, 4e+02]
Found heuristic solution: objective 19617.000000
Presolve time: 0.00s
Presolved: 256 rows, 480 columns, 960 nonzeros
Variable types: 240 continuous, 240 integer (240 binary)

Root relaxation: objective 2.769838e+03, 51 iterations, 0.00 seconds (0.00 work units)

    Nodes    |    Current Node    |     Objective Bounds      |     Work
 Expl Unexpl |  Obj  Depth IntInf | Incumbent    BestBd   Gap | It/Node Time

     0     0 2769.83800    0   14 19617.0000 2769.83800  85.9%     -    0s
H    0     0                    11359.000000 2769.83800  75.6%     -    0s
H    0     0                    11195.000000 2769.83800  75.3%     -    0s
H    0     0                    11074.000000 8116.87580  26.7%     -    0s
     0     0 8116.87580    0   26 11074.0000 8116.87580  26.7%     -    0s
H    0     0                    10916.000000 8116.87580  25.6%     -    0s
H    0     0                    10896.000000 8588.30479  21.2%     -    0s
     0     0 8588.30479    0   25 10896.0000 8588.30479  21.2%     -    0s
     0     0 8613.92228    0   22 10896.0000 8613.92228  20.9%     -    0s
H    0     0                    10806.000000 8613.92228  20.3%     -    0s
     0     0 8720.57299    0   23 10806.0000 8720.57299  19.3%     -    0s
H    0     0                    10748.000000 8720.57299  18.9%     -    0s
     0     0 8841.67029    0   27 10748.0000 8841.67029  17.7%     -    0s
     0     0 8855.21215    0   40 10748.0000 8855.21215  17.6%     -    0s
     0     0 8861.18547    0   41 10748.0000 8861.18547  17.6%     -    0s
     0     0 9039.54348    0   43 10748.0000 9039.54348  15.9%     -    0s
     0     0 9050.72997    0   38 10748.0000 9050.72997  15.8%     -    0s
     0     0 9080.70925    0   41 10748.0000 9080.70925  15.5%     -    0s
     0     0 9083.91638    0   45 10748.0000 9083.91638  15.5%     -    0s
     0     0 9101.63736    0   30 10748.0000 9101.63736  15.3%     -    0s
     0     0 9108.24955    0   32 10748.0000 9108.24955  15.3%     -    0s
     0     0 9140.93884    0   33 10748.0000 9140.93884  15.0%     -    0s
     0     0 9140.93884    0   33 10748.0000 9140.93884  15.0%     -    0s
     0     2 9140.93884    0   33 10748.0000 9140.93884  15.0%     -    0s
H   31    40                    10681.000000 9287.23102  13.0%  70.5    0s
H  775   583                    10674.000000 9316.38648  12.7%  24.7    0s
 25861  9256 10277.8969   29   28 10674.0000 10052.4483  5.82%  26.9    5s
 63048 15205     cutoff   30      10674.0000 10243.7028  4.03%  27.0   10s
 102716 14589     cutoff   46      10674.0000 10378.7836  2.77%  26.9   15s
 149118  1373 10623.6452   36   26 10674.0000 10572.6609  0.95%  25.7   20s

Cutting planes:
  Lift-and-project: 12
  Cover: 55
  Implied bound: 39
  MIR: 186
  Flow cover: 332
  Flow path: 53
  Inf proof: 1
  Zero half: 12
  Network: 46
  Relax-and-lift: 1

Explored 152658 nodes (3884657 simplex iterations) in 20.26 seconds (25.19 work units)
Thread count was 16 (of 16 available processors)

Solution count 10: 10674 10681 10748 ... 19617

Optimal solution found (tolerance 1.00e-04)
Best objective 1.067400000000e+04, best bound 1.067400000000e+04, gap 0.0000%
